1000
[100,103,106,107,110,112,114,115,116,117,118,121,122,124,125,126,127,128,130,131,132,136,138,139,140,141,142,143,145,146,148,149,150,151,154,155,157,158,159,162,163,164,165,166,167,168,169,170,173,174,175,176,178,179,180,182,183,184,187,188,191,192,193,195,197,198,199,201,202,204,205,206,208,209,210,211,212,217,218,219,221,223,224,225,227,228,229,232,233,234,236,237,238,239,240,241,242,243,244,245,247,248,249,251,252,253,255,256,262,263,266,268,269,270,271,272,274,276,277,278,279,280,281,282,283,284,287,288,289,291,292,294,295,297,298,299,300,302,303,304,305,307,308,309,310,311,313,316,317,319,321,322,323,324,325,326,327,328,330,331,332,334,335,336,337,338,340,342,343,344,346,347,348,349,350,352,353,355,359,360,365,366,367,368,369,370,371,373,374,375,376,377,379,380,381,382,383,384,386,388,389,390,391,392,393,397,398,399,401,403,404,405,407,408,410,411,412,413,415,417,418,419,420,421,424,425,426,427,428,429,430,431,433,434,435,437,438,439,440,441,442,443,447,448,449,450,452,453,454,455,456,457,459,460,461,462,463,464,465,467,468,469,471,472,473,474,475,478,479,480,485,486,487,488,489,490,491,492,496,497,499,500,502,503,504,505,506,507,509,510,511,512,514,515,516,517,520,521,522,523,524,527,528,529,530,532,533,534,537,539,540,541,542,543,546,548,549,550,552,553,554,555,556,557,559,561,562,564,565,566,567,569,571,574,575,576,577,578,580,581,582,583,584,585,587,588,589,590,591,592,593,594,595,596,597,598,600,601,603,604,605,606,607,608,610,612,613,614,615,616,617,618,619,621,622,623,624,626,628,629,631,633,634,635,637,638,639,640,643,645,646,647,648,649,650,651,652,653,654,656,657,658,660,661,662,663,664,665,666,667,669,671,672,674,675,676,677,678,679,680,682,683,684,685,687,688,690,691,692,693,694,695,697,698,699]
[1,1,2,1,2,1,1,3,2,3,3,2,1,1,4,1,3,1,2,1,1,1,1,1,2,1,1,2,2,3,1,1,2,2,1,2,2,2,2,3,1,1,2,3,1,4,1,2,1,3,1,2,3,1,2,2,1,1,1,4,3,3,1,1,1,1,1,1,1,3,1,1,1,1,2,2,1,1,1,2,2,3,1,1,2,4,1,1,3,3,1,2,3,1,2,2,1,2,3,2,1,1,2,1,2,2,2,2,1,3,2,1,2,1,2,2,2,2,2,3,1,1,1,1,1,1,1,1,1,3,1,1,1,7,1,3,1,2,1,2,1,1,1,3,2,1,3,2,1,1,1,1,1,2,2,2,2,1,1,3,1,2,1,3,1,2,4,2,1,1,1,1,1,1,1,2,2,1,3,4,1,2,2,2,1,1,1,3,3,1,1,1,1,2,1,1,2,1,2,3,3,2,2,1,1,2,1,1,1,2,2,2,2,1,1,2,1,2,2,1,2,1,1,2,1,2,2,1,1,2,2,3,3,1,2,1,1,3,3,1,1,3,2,1,1,1,2,1,2,2,4,1,2,1,2,2,2,1,1,1,1,4,1,3,2,1,1,2,1,1,2,2,1,1,2,3,2,1,2,2,3,2,1,3,3,1,1,3,2,2,1,1,2,2,2,1,1,3,1,2,2,1,3,1,2,1,1,1,2,2,1,1,2,2,5,1,4,1,3,1,2,2,3,1,2,2,1,2,2,1,1,1,1,2,1,2,1,1,3,2,1,3,2,2,1,1,1,3,3,2,1,5,2,1,2,2,1,2,2,1,4,1,4,3,1,1,1,1,1,2,2,1,1,1,1,3,1,3,1,1,1,1,1,3,1,1,1,2,1,2,3,4,3,1,3,1,2,1,1,2,1,1,2,1,1,2,3,3,2,1,1,2,1,2,2,1,1,1,1,2,2,4,1,1,2,1,2,1,1,2,4,1,3,2,1]
